10 10 4

0 480 64 333 338 347 470 67 145 203 
77 0 152 316 379 383 227 395 342 287 
173 175 0 381 306 159 311 73 375 366 
400 403 90 0 202 382 311 241 427 157 
210 444 253 119 0 471 355 142 106 237 
319 207 285 105 330 0 411 192 136 276 
210 366 150 75 266 52 0 322 418 385 
133 365 311 240 282 461 199 0 107 431 
260 199 243 203 469 401 439 280 0 230 
349 423 72 331 339 389 431 364 361 0 

326.7 0 7
326.7 1 2
326.7 2 0
326.7 3 7
326.7 4 5
326.7 5 6
326.7 6 8
326.7 7 1
326.7 8 9
326.7 9 8

